words_train/words_515_SAT.qaiger
aag 70 24 0 1 46
36
44
42
46
40
18
28
26
30
2
8
32
20
4
14
34
38
6
22
10
48
24
12
16
141
50 21 19
52 50 23
54 52 25
56 54 27
58 56 29
60 57 28
62 61 59
64 63 46
66 62 47
68 55 26
70 69 57
72 71 44
74 70 45
76 51 22
78 77 41
80 38 36
82 81 21
84 36 18
86 85 39
88 87 83
90 88 79
92 42 24
94 40 22
96 95 93
98 96 53
100 98 91
102 53 24
104 103 55
106 104 43
108 107 101
110 108 75
112 111 73
114 113 67
116 115 65
118 48 31
120 49 30
122 121 119
124 123 2
126 122 3
128 127 125
130 129 58
132 128 59
134 133 131
136 135 117
138 134 116
140 139 137
i0 1 x[1]
i1 1 x[5]
i2 1 x[4]
i3 1 x[6]
i4 1 x[3]
i5 2 z[0]
i6 2 z[5]
i7 2 z[4]
i8 2 z[6]
i9 2 y[0]
i10 2 y[3]
i11 2 z[7]
i12 2 z[1]
i13 2 y[1]
i14 2 y[6]
i15 1 x[0]
i16 1 x[2]
i17 2 y[2]
i18 2 z[2]
i19 2 y[4]
i20 1 x[7]
i21 2 z[3]
i22 2 y[5]
i23 2 y[7]
o0 bv[0]
c
simplified
  <
    subtract
      << 7
        2 y
      << 1
        2 z
    add
      1 x
      1
