words_train/words_515_SAT.qaiger.qdimacs
p cnf 70 139
a 17 18 19 20 21 22 23 24 0
e 1 2 3 4 5 6 7 8 9 10 11 12 13 14 15 16 25 26 27 28 29 30 31 32 33 34 35 36 37 38 39 40 41 42 43 44 45 46 47 48 49 50 51 52 53 54 55 56 57 58 59 60 61 62 63 64 65 66 67 68 69 70 0
10 9 25 0
-10 -25 0
-9 -25 0
-25 11 26 0
25 -26 0
-11 -26 0
-26 12 27 0
26 -27 0
-12 -27 0
-27 13 28 0
27 -28 0
-13 -28 0
-28 14 29 0
28 -29 0
-14 -29 0
28 -14 30 0
-28 -30 0
14 -30 0
30 29 31 0
-30 -31 0
-29 -31 0
31 -23 32 0
-31 -32 0
23 -32 0
-31 23 33 0
31 -33 0
-23 -33 0
27 -13 34 0
-27 -34 0
13 -34 0
34 28 35 0
-34 -35 0
-28 -35 0
35 -22 36 0
-35 -36 0
22 -36 0
-35 22 37 0
35 -37 0
-22 -37 0
25 -11 38 0
-25 -38 0
11 -38 0
38 20 39 0
-38 -39 0
-20 -39 0
-19 -18 40 0
19 -40 0
18 -40 0
40 10 41 0
-40 -41 0
-10 -41 0
-18 -9 42 0
18 -42 0
9 -42 0
42 19 43 0
-42 -43 0
-19 -43 0
43 41 44 0
-43 -44 0
-41 -44 0
-44 39 45 0
44 -45 0
-39 -45 0
-21 -12 46 0
21 -46 0
12 -46 0
-20 -11 47 0
20 -47 0
11 -47 0
47 46 48 0
-47 -48 0
-46 -48 0
-48 26 49 0
48 -49 0
-26 -49 0
-49 45 50 0
49 -50 0
-45 -50 0
26 -12 51 0
-26 -51 0
12 -51 0
51 27 52 0
-51 -52 0
-27 -52 0
-52 21 53 0
52 -53 0
-21 -53 0
53 50 54 0
-53 -54 0
-50 -54 0
-54 37 55 0
54 -55 0
-37 -55 0
55 36 56 0
-55 -56 0
-36 -56 0
56 33 57 0
-56 -57 0
-33 -57 0
57 32 58 0
-57 -58 0
-32 -58 0
-24 15 59 0
24 -59 0
-15 -59 0
24 -15 60 0
-24 -60 0
15 -60 0
60 59 61 0
-60 -61 0
-59 -61 0
61 -1 62 0
-61 -62 0
1 -62 0
-61 1 63 0
61 -63 0
-1 -63 0
63 62 64 0
-63 -64 0
-62 -64 0
64 -29 65 0
-64 -65 0
29 -65 0
-64 29 66 0
64 -66 0
-29 -66 0
66 65 67 0
-66 -67 0
-65 -67 0
67 58 68 0
-67 -68 0
-58 -68 0
-67 -58 69 0
67 -69 0
58 -69 0
69 68 70 0
-69 -70 0
-68 -70 0
-70 0
